c created by edge2cnf
p cnf 500 3100
-1 -2 0
-1 -3 0
-1 -4 0
-1 -5 0
-2 -3 0
-2 -4 0
-2 -5 0
-3 -4 0
-3 -5 0
-4 -5 0
1 2 3 4 5 0
-6 -7 0
-6 -8 0
-6 -9 0
-6 -10 0
-7 -8 0
-7 -9 0
-7 -10 0
-8 -9 0
-8 -10 0
-9 -10 0
6 7 8 9 10 0
-11 -12 0
-11 -13 0
-11 -14 0
-11 -15 0
-12 -13 0
-12 -14 0
-12 -15 0
-13 -14 0
-13 -15 0
-14 -15 0
11 12 13 14 15 0
-16 -17 0
-16 -18 0
-16 -19 0
-16 -20 0
-17 -18 0
-17 -19 0
-17 -20 0
-18 -19 0
-18 -20 0
-19 -20 0
16 17 18 19 20 0
-21 -22 0
-21 -23 0
-21 -24 0
-21 -25 0
-22 -23 0
-22 -24 0
-22 -25 0
-23 -24 0
-23 -25 0
-24 -25 0
21 22 23 24 25 0
-26 -27 0
-26 -28 0
-26 -29 0
-26 -30 0
-27 -28 0
-27 -29 0
-27 -30 0
-28 -29 0
-28 -30 0
-29 -30 0
26 27 28 29 30 0
-31 -32 0
-31 -33 0
-31 -34 0
-31 -35 0
-32 -33 0
-32 -34 0
-32 -35 0
-33 -34 0
-33 -35 0
-34 -35 0
31 32 33 34 35 0
-36 -37 0
-36 -38 0
-36 -39 0
-36 -40 0
-37 -38 0
-37 -39 0
-37 -40 0
-38 -39 0
-38 -40 0
-39 -40 0
36 37 38 39 40 0
-41 -42 0
-41 -43 0
-41 -44 0
-41 -45 0
-42 -43 0
-42 -44 0
-42 -45 0
-43 -44 0
-43 -45 0
-44 -45 0
41 42 43 44 45 0
-46 -47 0
-46 -48 0
-46 -49 0
-46 -50 0
-47 -48 0
-47 -49 0
-47 -50 0
-48 -49 0
-48 -50 0
-49 -50 0
46 47 48 49 50 0
-51 -52 0
-51 -53 0
-51 -54 0
-51 -55 0
-52 -53 0
-52 -54 0
-52 -55 0
-53 -54 0
-53 -55 0
-54 -55 0
51 52 53 54 55 0
-56 -57 0
-56 -58 0
-56 -59 0
-56 -60 0
-57 -58 0
-57 -59 0
-57 -60 0
-58 -59 0
-58 -60 0
-59 -60 0
56 57 58 59 60 0
-61 -62 0
-61 -63 0
-61 -64 0
-61 -65 0
-62 -63 0
-62 -64 0
-62 -65 0
-63 -64 0
-63 -65 0
-64 -65 0
61 62 63 64 65 0
-66 -67 0
-66 -68 0
-66 -69 0
-66 -70 0
-67 -68 0
-67 -69 0
-67 -70 0
-68 -69 0
-68 -70 0
-69 -70 0
66 67 68 69 70 0
-71 -72 0
-71 -73 0
-71 -74 0
-71 -75 0
-72 -73 0
-72 -74 0
-72 -75 0
-73 -74 0
-73 -75 0
-74 -75 0
71 72 73 74 75 0
-76 -77 0
-76 -78 0
-76 -79 0
-76 -80 0
-77 -78 0
-77 -79 0
-77 -80 0
-78 -79 0
-78 -80 0
-79 -80 0
76 77 78 79 80 0
-81 -82 0
-81 -83 0
-81 -84 0
-81 -85 0
-82 -83 0
-82 -84 0
-82 -85 0
-83 -84 0
-83 -85 0
-84 -85 0
81 82 83 84 85 0
-86 -87 0
-86 -88 0
-86 -89 0
-86 -90 0
-87 -88 0
-87 -89 0
-87 -90 0
-88 -89 0
-88 -90 0
-89 -90 0
86 87 88 89 90 0
-91 -92 0
-91 -93 0
-91 -94 0
-91 -95 0
-92 -93 0
-92 -94 0
-92 -95 0
-93 -94 0
-93 -95 0
-94 -95 0
91 92 93 94 95 0
-96 -97 0
-96 -98 0
-96 -99 0
-96 -100 0
-97 -98 0
-97 -99 0
-97 -100 0
-98 -99 0
-98 -100 0
-99 -100 0
96 97 98 99 100 0
-101 -102 0
-101 -103 0
-101 -104 0
-101 -105 0
-102 -103 0
-102 -104 0
-102 -105 0
-103 -104 0
-103 -105 0
-104 -105 0
101 102 103 104 105 0
-106 -107 0
-106 -108 0
-106 -109 0
-106 -110 0
-107 -108 0
-107 -109 0
-107 -110 0
-108 -109 0
-108 -110 0
-109 -110 0
106 107 108 109 110 0
-111 -112 0
-111 -113 0
-111 -114 0
-111 -115 0
-112 -113 0
-112 -114 0
-112 -115 0
-113 -114 0
-113 -115 0
-114 -115 0
111 112 113 114 115 0
-116 -117 0
-116 -118 0
-116 -119 0
-116 -120 0
-117 -118 0
-117 -119 0
-117 -120 0
-118 -119 0
-118 -120 0
-119 -120 0
116 117 118 119 120 0
-121 -122 0
-121 -123 0
-121 -124 0
-121 -125 0
-122 -123 0
-122 -124 0
-122 -125 0
-123 -124 0
-123 -125 0
-124 -125 0
121 122 123 124 125 0
-126 -127 0
-126 -128 0
-126 -129 0
-126 -130 0
-127 -128 0
-127 -129 0
-127 -130 0
-128 -129 0
-128 -130 0
-129 -130 0
126 127 128 129 130 0
-131 -132 0
-131 -133 0
-131 -134 0
-131 -135 0
-132 -133 0
-132 -134 0
-132 -135 0
-133 -134 0
-133 -135 0
-134 -135 0
131 132 133 134 135 0
-136 -137 0
-136 -138 0
-136 -139 0
-136 -140 0
-137 -138 0
-137 -139 0
-137 -140 0
-138 -139 0
-138 -140 0
-139 -140 0
136 137 138 139 140 0
-141 -142 0
-141 -143 0
-141 -144 0
-141 -145 0
-142 -143 0
-142 -144 0
-142 -145 0
-143 -144 0
-143 -145 0
-144 -145 0
141 142 143 144 145 0
-146 -147 0
-146 -148 0
-146 -149 0
-146 -150 0
-147 -148 0
-147 -149 0
-147 -150 0
-148 -149 0
-148 -150 0
-149 -150 0
146 147 148 149 150 0
-151 -152 0
-151 -153 0
-151 -154 0
-151 -155 0
-152 -153 0
-152 -154 0
-152 -155 0
-153 -154 0
-153 -155 0
-154 -155 0
151 152 153 154 155 0
-156 -157 0
-156 -158 0
-156 -159 0
-156 -160 0
-157 -158 0
-157 -159 0
-157 -160 0
-158 -159 0
-158 -160 0
-159 -160 0
156 157 158 159 160 0
-161 -162 0
-161 -163 0
-161 -164 0
-161 -165 0
-162 -163 0
-162 -164 0
-162 -165 0
-163 -164 0
-163 -165 0
-164 -165 0
161 162 163 164 165 0
-166 -167 0
-166 -168 0
-166 -169 0
-166 -170 0
-167 -168 0
-167 -169 0
-167 -170 0
-168 -169 0
-168 -170 0
-169 -170 0
166 167 168 169 170 0
-171 -172 0
-171 -173 0
-171 -174 0
-171 -175 0
-172 -173 0
-172 -174 0
-172 -175 0
-173 -174 0
-173 -175 0
-174 -175 0
171 172 173 174 175 0
-176 -177 0
-176 -178 0
-176 -179 0
-176 -180 0
-177 -178 0
-177 -179 0
-177 -180 0
-178 -179 0
-178 -180 0
-179 -180 0
176 177 178 179 180 0
-181 -182 0
-181 -183 0
-181 -184 0
-181 -185 0
-182 -183 0
-182 -184 0
-182 -185 0
-183 -184 0
-183 -185 0
-184 -185 0
181 182 183 184 185 0
-186 -187 0
-186 -188 0
-186 -189 0
-186 -190 0
-187 -188 0
-187 -189 0
-187 -190 0
-188 -189 0
-188 -190 0
-189 -190 0
186 187 188 189 190 0
-191 -192 0
-191 -193 0
-191 -194 0
-191 -195 0
-192 -193 0
-192 -194 0
-192 -195 0
-193 -194 0
-193 -195 0
-194 -195 0
191 192 193 194 195 0
-196 -197 0
-196 -198 0
-196 -199 0
-196 -200 0
-197 -198 0
-197 -199 0
-197 -200 0
-198 -199 0
-198 -200 0
-199 -200 0
196 197 198 199 200 0
-201 -202 0
-201 -203 0
-201 -204 0
-201 -205 0
-202 -203 0
-202 -204 0
-202 -205 0
-203 -204 0
-203 -205 0
-204 -205 0
201 202 203 204 205 0
-206 -207 0
-206 -208 0
-206 -209 0
-206 -210 0
-207 -208 0
-207 -209 0
-207 -210 0
-208 -209 0
-208 -210 0
-209 -210 0
206 207 208 209 210 0
-211 -212 0
-211 -213 0
-211 -214 0
-211 -215 0
-212 -213 0
-212 -214 0
-212 -215 0
-213 -214 0
-213 -215 0
-214 -215 0
211 212 213 214 215 0
-216 -217 0
-216 -218 0
-216 -219 0
-216 -220 0
-217 -218 0
-217 -219 0
-217 -220 0
-218 -219 0
-218 -220 0
-219 -220 0
216 217 218 219 220 0
-221 -222 0
-221 -223 0
-221 -224 0
-221 -225 0
-222 -223 0
-222 -224 0
-222 -225 0
-223 -224 0
-223 -225 0
-224 -225 0
221 222 223 224 225 0
-226 -227 0
-226 -228 0
-226 -229 0
-226 -230 0
-227 -228 0
-227 -229 0
-227 -230 0
-228 -229 0
-228 -230 0
-229 -230 0
226 227 228 229 230 0
-231 -232 0
-231 -233 0
-231 -234 0
-231 -235 0
-232 -233 0
-232 -234 0
-232 -235 0
-233 -234 0
-233 -235 0
-234 -235 0
231 232 233 234 235 0
-236 -237 0
-236 -238 0
-236 -239 0
-236 -240 0
-237 -238 0
-237 -239 0
-237 -240 0
-238 -239 0
-238 -240 0
-239 -240 0
236 237 238 239 240 0
-241 -242 0
-241 -243 0
-241 -244 0
-241 -245 0
-242 -243 0
-242 -244 0
-242 -245 0
-243 -244 0
-243 -245 0
-244 -245 0
241 242 243 244 245 0
-246 -247 0
-246 -248 0
-246 -249 0
-246 -250 0
-247 -248 0
-247 -249 0
-247 -250 0
-248 -249 0
-248 -250 0
-249 -250 0
246 247 248 249 250 0
-251 -252 0
-251 -253 0
-251 -254 0
-251 -255 0
-252 -253 0
-252 -254 0
-252 -255 0
-253 -254 0
-253 -255 0
-254 -255 0
251 252 253 254 255 0
-256 -257 0
-256 -258 0
-256 -259 0
-256 -260 0
-257 -258 0
-257 -259 0
-257 -260 0
-258 -259 0
-258 -260 0
-259 -260 0
256 257 258 259 260 0
-261 -262 0
-261 -263 0
-261 -264 0
-261 -265 0
-262 -263 0
-262 -264 0
-262 -265 0
-263 -264 0
-263 -265 0
-264 -265 0
261 262 263 264 265 0
-266 -267 0
-266 -268 0
-266 -269 0
-266 -270 0
-267 -268 0
-267 -269 0
-267 -270 0
-268 -269 0
-268 -270 0
-269 -270 0
266 267 268 269 270 0
-271 -272 0
-271 -273 0
-271 -274 0
-271 -275 0
-272 -273 0
-272 -274 0
-272 -275 0
-273 -274 0
-273 -275 0
-274 -275 0
271 272 273 274 275 0
-276 -277 0
-276 -278 0
-276 -279 0
-276 -280 0
-277 -278 0
-277 -279 0
-277 -280 0
-278 -279 0
-278 -280 0
-279 -280 0
276 277 278 279 280 0
-281 -282 0
-281 -283 0
-281 -284 0
-281 -285 0
-282 -283 0
-282 -284 0
-282 -285 0
-283 -284 0
-283 -285 0
-284 -285 0
281 282 283 284 285 0
-286 -287 0
-286 -288 0
-286 -289 0
-286 -290 0
-287 -288 0
-287 -289 0
-287 -290 0
-288 -289 0
-288 -290 0
-289 -290 0
286 287 288 289 290 0
-291 -292 0
-291 -293 0
-291 -294 0
-291 -295 0
-292 -293 0
-292 -294 0
-292 -295 0
-293 -294 0
-293 -295 0
-294 -295 0
291 292 293 294 295 0
-296 -297 0
-296 -298 0
-296 -299 0
-296 -300 0
-297 -298 0
-297 -299 0
-297 -300 0
-298 -299 0
-298 -300 0
-299 -300 0
296 297 298 299 300 0
-301 -302 0
-301 -303 0
-301 -304 0
-301 -305 0
-302 -303 0
-302 -304 0
-302 -305 0
-303 -304 0
-303 -305 0
-304 -305 0
301 302 303 304 305 0
-306 -307 0
-306 -308 0
-306 -309 0
-306 -310 0
-307 -308 0
-307 -309 0
-307 -310 0
-308 -309 0
-308 -310 0
-309 -310 0
306 307 308 309 310 0
-311 -312 0
-311 -313 0
-311 -314 0
-311 -315 0
-312 -313 0
-312 -314 0
-312 -315 0
-313 -314 0
-313 -315 0
-314 -315 0
311 312 313 314 315 0
-316 -317 0
-316 -318 0
-316 -319 0
-316 -320 0
-317 -318 0
-317 -319 0
-317 -320 0
-318 -319 0
-318 -320 0
-319 -320 0
316 317 318 319 320 0
-321 -322 0
-321 -323 0
-321 -324 0
-321 -325 0
-322 -323 0
-322 -324 0
-322 -325 0
-323 -324 0
-323 -325 0
-324 -325 0
321 322 323 324 325 0
-326 -327 0
-326 -328 0
-326 -329 0
-326 -330 0
-327 -328 0
-327 -329 0
-327 -330 0
-328 -329 0
-328 -330 0
-329 -330 0
326 327 328 329 330 0
-331 -332 0
-331 -333 0
-331 -334 0
-331 -335 0
-332 -333 0
-332 -334 0
-332 -335 0
-333 -334 0
-333 -335 0
-334 -335 0
331 332 333 334 335 0
-336 -337 0
-336 -338 0
-336 -339 0
-336 -340 0
-337 -338 0
-337 -339 0
-337 -340 0
-338 -339 0
-338 -340 0
-339 -340 0
336 337 338 339 340 0
-341 -342 0
-341 -343 0
-341 -344 0
-341 -345 0
-342 -343 0
-342 -344 0
-342 -345 0
-343 -344 0
-343 -345 0
-344 -345 0
341 342 343 344 345 0
-346 -347 0
-346 -348 0
-346 -349 0
-346 -350 0
-347 -348 0
-347 -349 0
-347 -350 0
-348 -349 0
-348 -350 0
-349 -350 0
346 347 348 349 350 0
-351 -352 0
-351 -353 0
-351 -354 0
-351 -355 0
-352 -353 0
-352 -354 0
-352 -355 0
-353 -354 0
-353 -355 0
-354 -355 0
351 352 353 354 355 0
-356 -357 0
-356 -358 0
-356 -359 0
-356 -360 0
-357 -358 0
-357 -359 0
-357 -360 0
-358 -359 0
-358 -360 0
-359 -360 0
356 357 358 359 360 0
-361 -362 0
-361 -363 0
-361 -364 0
-361 -365 0
-362 -363 0
-362 -364 0
-362 -365 0
-363 -364 0
-363 -365 0
-364 -365 0
361 362 363 364 365 0
-366 -367 0
-366 -368 0
-366 -369 0
-366 -370 0
-367 -368 0
-367 -369 0
-367 -370 0
-368 -369 0
-368 -370 0
-369 -370 0
366 367 368 369 370 0
-371 -372 0
-371 -373 0
-371 -374 0
-371 -375 0
-372 -373 0
-372 -374 0
-372 -375 0
-373 -374 0
-373 -375 0
-374 -375 0
371 372 373 374 375 0
-376 -377 0
-376 -378 0
-376 -379 0
-376 -380 0
-377 -378 0
-377 -379 0
-377 -380 0
-378 -379 0
-378 -380 0
-379 -380 0
376 377 378 379 380 0
-381 -382 0
-381 -383 0
-381 -384 0
-381 -385 0
-382 -383 0
-382 -384 0
-382 -385 0
-383 -384 0
-383 -385 0
-384 -385 0
381 382 383 384 385 0
-386 -387 0
-386 -388 0
-386 -389 0
-386 -390 0
-387 -388 0
-387 -389 0
-387 -390 0
-388 -389 0
-388 -390 0
-389 -390 0
386 387 388 389 390 0
-391 -392 0
-391 -393 0
-391 -394 0
-391 -395 0
-392 -393 0
-392 -394 0
-392 -395 0
-393 -394 0
-393 -395 0
-394 -395 0
391 392 393 394 395 0
-396 -397 0
-396 -398 0
-396 -399 0
-396 -400 0
-397 -398 0
-397 -399 0
-397 -400 0
-398 -399 0
-398 -400 0
-399 -400 0
396 397 398 399 400 0
-401 -402 0
-401 -403 0
-401 -404 0
-401 -405 0
-402 -403 0
-402 -404 0
-402 -405 0
-403 -404 0
-403 -405 0
-404 -405 0
401 402 403 404 405 0
-406 -407 0
-406 -408 0
-406 -409 0
-406 -410 0
-407 -408 0
-407 -409 0
-407 -410 0
-408 -409 0
-408 -410 0
-409 -410 0
406 407 408 409 410 0
-411 -412 0
-411 -413 0
-411 -414 0
-411 -415 0
-412 -413 0
-412 -414 0
-412 -415 0
-413 -414 0
-413 -415 0
-414 -415 0
411 412 413 414 415 0
-416 -417 0
-416 -418 0
-416 -419 0
-416 -420 0
-417 -418 0
-417 -419 0
-417 -420 0
-418 -419 0
-418 -420 0
-419 -420 0
416 417 418 419 420 0
-421 -422 0
-421 -423 0
-421 -424 0
-421 -425 0
-422 -423 0
-422 -424 0
-422 -425 0
-423 -424 0
-423 -425 0
-424 -425 0
421 422 423 424 425 0
-426 -427 0
-426 -428 0
-426 -429 0
-426 -430 0
-427 -428 0
-427 -429 0
-427 -430 0
-428 -429 0
-428 -430 0
-429 -430 0
426 427 428 429 430 0
-431 -432 0
-431 -433 0
-431 -434 0
-431 -435 0
-432 -433 0
-432 -434 0
-432 -435 0
-433 -434 0
-433 -435 0
-434 -435 0
431 432 433 434 435 0
-436 -437 0
-436 -438 0
-436 -439 0
-436 -440 0
-437 -438 0
-437 -439 0
-437 -440 0
-438 -439 0
-438 -440 0
-439 -440 0
436 437 438 439 440 0
-441 -442 0
-441 -443 0
-441 -444 0
-441 -445 0
-442 -443 0
-442 -444 0
-442 -445 0
-443 -444 0
-443 -445 0
-444 -445 0
441 442 443 444 445 0
-446 -447 0
-446 -448 0
-446 -449 0
-446 -450 0
-447 -448 0
-447 -449 0
-447 -450 0
-448 -449 0
-448 -450 0
-449 -450 0
446 447 448 449 450 0
-451 -452 0
-451 -453 0
-451 -454 0
-451 -455 0
-452 -453 0
-452 -454 0
-452 -455 0
-453 -454 0
-453 -455 0
-454 -455 0
451 452 453 454 455 0
-456 -457 0
-456 -458 0
-456 -459 0
-456 -460 0
-457 -458 0
-457 -459 0
-457 -460 0
-458 -459 0
-458 -460 0
-459 -460 0
456 457 458 459 460 0
-461 -462 0
-461 -463 0
-461 -464 0
-461 -465 0
-462 -463 0
-462 -464 0
-462 -465 0
-463 -464 0
-463 -465 0
-464 -465 0
461 462 463 464 465 0
-466 -467 0
-466 -468 0
-466 -469 0
-466 -470 0
-467 -468 0
-467 -469 0
-467 -470 0
-468 -469 0
-468 -470 0
-469 -470 0
466 467 468 469 470 0
-471 -472 0
-471 -473 0
-471 -474 0
-471 -475 0
-472 -473 0
-472 -474 0
-472 -475 0
-473 -474 0
-473 -475 0
-474 -475 0
471 472 473 474 475 0
-476 -477 0
-476 -478 0
-476 -479 0
-476 -480 0
-477 -478 0
-477 -479 0
-477 -480 0
-478 -479 0
-478 -480 0
-479 -480 0
476 477 478 479 480 0
-481 -482 0
-481 -483 0
-481 -484 0
-481 -485 0
-482 -483 0
-482 -484 0
-482 -485 0
-483 -484 0
-483 -485 0
-484 -485 0
481 482 483 484 485 0
-486 -487 0
-486 -488 0
-486 -489 0
-486 -490 0
-487 -488 0
-487 -489 0
-487 -490 0
-488 -489 0
-488 -490 0
-489 -490 0
486 487 488 489 490 0
-491 -492 0
-491 -493 0
-491 -494 0
-491 -495 0
-492 -493 0
-492 -494 0
-492 -495 0
-493 -494 0
-493 -495 0
-494 -495 0
491 492 493 494 495 0
-496 -497 0
-496 -498 0
-496 -499 0
-496 -500 0
-497 -498 0
-497 -499 0
-497 -500 0
-498 -499 0
-498 -500 0
-499 -500 0
496 497 498 499 500 0
-16 -36 0
-17 -37 0
-18 -38 0
-19 -39 0
-20 -40 0
-36 -51 0
-37 -52 0
-38 -53 0
-39 -54 0
-40 -55 0
-121 -126 0
-122 -127 0
-123 -128 0
-124 -129 0
-125 -130 0
-136 -151 0
-137 -152 0
-138 -153 0
-139 -154 0
-140 -155 0
-146 -161 0
-147 -162 0
-148 -163 0
-149 -164 0
-150 -165 0
-171 -176 0
-172 -177 0
-173 -178 0
-174 -179 0
-175 -180 0
-196 -216 0
-197 -217 0
-198 -218 0
-199 -219 0
-200 -220 0
-201 -221 0
-202 -222 0
-203 -223 0
-204 -224 0
-205 -225 0
-206 -211 0
-207 -212 0
-208 -213 0
-209 -214 0
-210 -215 0
-226 -236 0
-227 -237 0
-228 -238 0
-229 -239 0
-230 -240 0
-231 -251 0
-232 -252 0
-233 -253 0
-234 -254 0
-235 -255 0
-246 -266 0
-247 -267 0
-248 -268 0
-249 -269 0
-250 -270 0
-286 -306 0
-287 -307 0
-288 -308 0
-289 -309 0
-290 -310 0
-311 -316 0
-312 -317 0
-313 -318 0
-314 -319 0
-315 -320 0
-316 -336 0
-317 -337 0
-318 -338 0
-319 -339 0
-320 -340 0
-321 -336 0
-322 -337 0
-323 -338 0
-324 -339 0
-325 -340 0
-336 -346 0
-337 -347 0
-338 -348 0
-339 -349 0
-340 -350 0
-371 -381 0
-372 -382 0
-373 -383 0
-374 -384 0
-375 -385 0
-391 -401 0
-392 -402 0
-393 -403 0
-394 -404 0
-395 -405 0
-391 -406 0
-392 -407 0
-393 -408 0
-394 -409 0
-395 -410 0
-391 -411 0
-392 -412 0
-393 -413 0
-394 -414 0
-395 -415 0
-396 -411 0
-397 -412 0
-398 -413 0
-399 -414 0
-400 -415 0
-411 -431 0
-412 -432 0
-413 -433 0
-414 -434 0
-415 -435 0
-416 -421 0
-417 -422 0
-418 -423 0
-419 -424 0
-420 -425 0
-416 -436 0
-417 -437 0
-418 -438 0
-419 -439 0
-420 -440 0
-421 -431 0
-422 -432 0
-423 -433 0
-424 -434 0
-425 -435 0
-436 -446 0
-437 -447 0
-438 -448 0
-439 -449 0
-440 -450 0
-446 -451 0
-447 -452 0
-448 -453 0
-449 -454 0
-450 -455 0
-456 -471 0
-457 -472 0
-458 -473 0
-459 -474 0
-460 -475 0
-466 -476 0
-467 -477 0
-468 -478 0
-469 -479 0
-470 -480 0
-481 -486 0
-482 -487 0
-483 -488 0
-484 -489 0
-485 -490 0
-481 -491 0
-482 -492 0
-483 -493 0
-484 -494 0
-485 -495 0
-486 -496 0
-487 -497 0
-488 -498 0
-489 -499 0
-490 -500 0
-1 -486 0
-2 -487 0
-3 -488 0
-4 -489 0
-5 -490 0
-6 -486 0
-7 -487 0
-8 -488 0
-9 -489 0
-10 -490 0
-6 -491 0
-7 -492 0
-8 -493 0
-9 -494 0
-10 -495 0
-451 -471 0
-452 -472 0
-453 -473 0
-454 -474 0
-455 -475 0
-186 -201 0
-187 -202 0
-188 -203 0
-189 -204 0
-190 -205 0
-116 -131 0
-117 -132 0
-118 -133 0
-119 -134 0
-120 -135 0
-366 -386 0
-367 -387 0
-368 -388 0
-369 -389 0
-370 -390 0
-56 -71 0
-57 -72 0
-58 -73 0
-59 -74 0
-60 -75 0
-386 -406 0
-387 -407 0
-388 -408 0
-389 -409 0
-390 -410 0
-376 -391 0
-377 -392 0
-378 -393 0
-379 -394 0
-380 -395 0
-121 -136 0
-122 -137 0
-123 -138 0
-124 -139 0
-125 -140 0
-6 -11 0
-7 -12 0
-8 -13 0
-9 -14 0
-10 -15 0
-161 -181 0
-162 -182 0
-163 -183 0
-164 -184 0
-165 -185 0
-401 -421 0
-402 -422 0
-403 -423 0
-404 -424 0
-405 -425 0
-441 -456 0
-442 -457 0
-443 -458 0
-444 -459 0
-445 -460 0
-211 -231 0
-212 -232 0
-213 -233 0
-214 -234 0
-215 -235 0
-331 -351 0
-332 -352 0
-333 -353 0
-334 -354 0
-335 -355 0
-301 -311 0
-302 -312 0
-303 -313 0
-304 -314 0
-305 -315 0
-221 -241 0
-222 -242 0
-223 -243 0
-224 -244 0
-225 -245 0
-136 -156 0
-137 -157 0
-138 -158 0
-139 -159 0
-140 -160 0
-306 -311 0
-307 -312 0
-308 -313 0
-309 -314 0
-310 -315 0
-61 -71 0
-62 -72 0
-63 -73 0
-64 -74 0
-65 -75 0
-396 -401 0
-397 -402 0
-398 -403 0
-399 -404 0
-400 -405 0
-396 -416 0
-397 -417 0
-398 -418 0
-399 -419 0
-400 -420 0
-96 -116 0
-97 -117 0
-98 -118 0
-99 -119 0
-100 -120 0
-251 -256 0
-252 -257 0
-253 -258 0
-254 -259 0
-255 -260 0
-71 -81 0
-72 -82 0
-73 -83 0
-74 -84 0
-75 -85 0
-356 -366 0
-357 -367 0
-358 -368 0
-359 -369 0
-360 -370 0
-276 -291 0
-277 -292 0
-278 -293 0
-279 -294 0
-280 -295 0
-26 -41 0
-27 -42 0
-28 -43 0
-29 -44 0
-30 -45 0
-186 -206 0
-187 -207 0
-188 -208 0
-189 -209 0
-190 -210 0
-71 -76 0
-72 -77 0
-73 -78 0
-74 -79 0
-75 -80 0
-251 -271 0
-252 -272 0
-253 -273 0
-254 -274 0
-255 -275 0
-211 -221 0
-212 -222 0
-213 -223 0
-214 -224 0
-215 -225 0
-151 -166 0
-152 -167 0
-153 -168 0
-154 -169 0
-155 -170 0
-351 -356 0
-352 -357 0
-353 -358 0
-354 -359 0
-355 -360 0
-376 -386 0
-377 -387 0
-378 -388 0
-379 -389 0
-380 -390 0
-126 -136 0
-127 -137 0
-128 -138 0
-129 -139 0
-130 -140 0
-91 -96 0
-92 -97 0
-93 -98 0
-94 -99 0
-95 -100 0
-181 -186 0
-182 -187 0
-183 -188 0
-184 -189 0
-185 -190 0
-466 -486 0
-467 -487 0
-468 -488 0
-469 -489 0
-470 -490 0
-406 -421 0
-407 -422 0
-408 -423 0
-409 -424 0
-410 -425 0
-31 -36 0
-32 -37 0
-33 -38 0
-34 -39 0
-35 -40 0
-346 -351 0
-347 -352 0
-348 -353 0
-349 -354 0
-350 -355 0
-351 -371 0
-352 -372 0
-353 -373 0
-354 -374 0
-355 -375 0
-256 -276 0
-257 -277 0
-258 -278 0
-259 -279 0
-260 -280 0
-221 -226 0
-222 -227 0
-223 -228 0
-224 -229 0
-225 -230 0
-431 -436 0
-432 -437 0
-433 -438 0
-434 -439 0
-435 -440 0
-196 -201 0
-197 -202 0
-198 -203 0
-199 -204 0
-200 -205 0
-406 -411 0
-407 -412 0
-408 -413 0
-409 -414 0
-410 -415 0
-296 -306 0
-297 -307 0
-298 -308 0
-299 -309 0
-300 -310 0
-216 -231 0
-217 -232 0
-218 -233 0
-219 -234 0
-220 -235 0
-476 -486 0
-477 -487 0
-478 -488 0
-479 -489 0
-480 -490 0
-431 -441 0
-432 -442 0
-433 -443 0
-434 -444 0
-435 -445 0
-231 -241 0
-232 -242 0
-233 -243 0
-234 -244 0
-235 -245 0
-241 -246 0
-242 -247 0
-243 -248 0
-244 -249 0
-245 -250 0
-341 -356 0
-342 -357 0
-343 -358 0
-344 -359 0
-345 -360 0
-201 -206 0
-202 -207 0
-203 -208 0
-204 -209 0
-205 -210 0
-256 -261 0
-257 -262 0
-258 -263 0
-259 -264 0
-260 -265 0
-426 -431 0
-427 -432 0
-428 -433 0
-429 -434 0
-430 -435 0
-286 -296 0
-287 -297 0
-288 -298 0
-289 -299 0
-290 -300 0
-416 -431 0
-417 -432 0
-418 -433 0
-419 -434 0
-420 -435 0
-61 -81 0
-62 -82 0
-63 -83 0
-64 -84 0
-65 -85 0
-126 -146 0
-127 -147 0
-128 -148 0
-129 -149 0
-130 -150 0
-401 -411 0
-402 -412 0
-403 -413 0
-404 -414 0
-405 -415 0
-366 -371 0
-367 -372 0
-368 -373 0
-369 -374 0
-370 -375 0
-411 -421 0
-412 -422 0
-413 -423 0
-414 -424 0
-415 -425 0
-101 -121 0
-102 -122 0
-103 -123 0
-104 -124 0
-105 -125 0
-236 -251 0
-237 -252 0
-238 -253 0
-239 -254 0
-240 -255 0
-1 -6 0
-2 -7 0
-3 -8 0
-4 -9 0
-5 -10 0
-11 -21 0
-12 -22 0
-13 -23 0
-14 -24 0
-15 -25 0
-176 -191 0
-177 -192 0
-178 -193 0
-179 -194 0
-180 -195 0
-461 -476 0
-462 -477 0
-463 -478 0
-464 -479 0
-465 -480 0
-56 -76 0
-57 -77 0
-58 -78 0
-59 -79 0
-60 -80 0
-1 -481 0
-2 -482 0
-3 -483 0
-4 -484 0
-5 -485 0
-451 -456 0
-452 -457 0
-453 -458 0
-454 -459 0
-455 -460 0
-141 -151 0
-142 -152 0
-143 -153 0
-144 -154 0
-145 -155 0
-331 -336 0
-332 -337 0
-333 -338 0
-334 -339 0
-335 -340 0
-276 -281 0
-277 -282 0
-278 -283 0
-279 -284 0
-280 -285 0
-106 -126 0
-107 -127 0
-108 -128 0
-109 -129 0
-110 -130 0
-71 -91 0
-72 -92 0
-73 -93 0
-74 -94 0
-75 -95 0
-266 -276 0
-267 -277 0
-268 -278 0
-269 -279 0
-270 -280 0
-161 -171 0
-162 -172 0
-163 -173 0
-164 -174 0
-165 -175 0
-191 -196 0
-192 -197 0
-193 -198 0
-194 -199 0
-195 -200 0
-336 -356 0
-337 -357 0
-338 -358 0
-339 -359 0
-340 -360 0
-341 -346 0
-342 -347 0
-343 -348 0
-344 -349 0
-345 -350 0
-81 -96 0
-82 -97 0
-83 -98 0
-84 -99 0
-85 -100 0
-456 -461 0
-457 -462 0
-458 -463 0
-459 -464 0
-460 -465 0
-411 -416 0
-412 -417 0
-413 -418 0
-414 -419 0
-415 -420 0
-76 -91 0
-77 -92 0
-78 -93 0
-79 -94 0
-80 -95 0
-226 -241 0
-227 -242 0
-228 -243 0
-229 -244 0
-230 -245 0
-31 -46 0
-32 -47 0
-33 -48 0
-34 -49 0
-35 -50 0
-246 -256 0
-247 -257 0
-248 -258 0
-249 -259 0
-250 -260 0
-26 -31 0
-27 -32 0
-28 -33 0
-29 -34 0
-30 -35 0
-46 -51 0
-47 -52 0
-48 -53 0
-49 -54 0
-50 -55 0
-121 -131 0
-122 -132 0
-123 -133 0
-124 -134 0
-125 -135 0
-421 -441 0
-422 -442 0
-423 -443 0
-424 -444 0
-425 -445 0
-471 -481 0
-472 -482 0
-473 -483 0
-474 -484 0
-475 -485 0
-11 -496 0
-12 -497 0
-13 -498 0
-14 -499 0
-15 -500 0
-131 -141 0
-132 -142 0
-133 -143 0
-134 -144 0
-135 -145 0
-366 -376 0
-367 -377 0
-368 -378 0
-369 -379 0
-370 -380 0
-386 -396 0
-387 -397 0
-388 -398 0
-389 -399 0
-390 -400 0
-1 -11 0
-2 -12 0
-3 -13 0
-4 -14 0
-5 -15 0
-266 -286 0
-267 -287 0
-268 -288 0
-269 -289 0
-270 -290 0
-166 -171 0
-167 -172 0
-168 -173 0
-169 -174 0
-170 -175 0
-191 -211 0
-192 -212 0
-193 -213 0
-194 -214 0
-195 -215 0
-196 -206 0
-197 -207 0
-198 -208 0
-199 -209 0
-200 -210 0
-146 -151 0
-147 -152 0
-148 -153 0
-149 -154 0
-150 -155 0
-86 -101 0
-87 -102 0
-88 -103 0
-89 -104 0
-90 -105 0
-346 -366 0
-347 -367 0
-348 -368 0
-349 -369 0
-350 -370 0
-106 -111 0
-107 -112 0
-108 -113 0
-109 -114 0
-110 -115 0
-156 -166 0
-157 -167 0
-158 -168 0
-159 -169 0
-160 -170 0
-436 -441 0
-437 -442 0
-438 -443 0
-439 -444 0
-440 -445 0
-186 -191 0
-187 -192 0
-188 -193 0
-189 -194 0
-190 -195 0
-246 -261 0
-247 -262 0
-248 -263 0
-249 -264 0
-250 -265 0
-461 -466 0
-462 -467 0
-463 -468 0
-464 -469 0
-465 -470 0
-276 -296 0
-277 -297 0
-278 -298 0
-279 -299 0
-280 -300 0
-191 -206 0
-192 -207 0
-193 -208 0
-194 -209 0
-195 -210 0
-236 -241 0
-237 -242 0
-238 -243 0
-239 -244 0
-240 -245 0
-436 -451 0
-437 -452 0
-438 -453 0
-439 -454 0
-440 -455 0
-376 -381 0
-377 -382 0
-378 -383 0
-379 -384 0
-380 -385 0
-126 -141 0
-127 -142 0
-128 -143 0
-129 -144 0
-130 -145 0
-421 -436 0
-422 -437 0
-423 -438 0
-424 -439 0
-425 -440 0
-21 -26 0
-22 -27 0
-23 -28 0
-24 -29 0
-25 -30 0
-91 -101 0
-92 -102 0
-93 -103 0
-94 -104 0
-95 -105 0
-166 -176 0
-167 -177 0
-168 -178 0
-169 -179 0
-170 -180 0
-471 -486 0
-472 -487 0
-473 -488 0
-474 -489 0
-475 -490 0
-41 -61 0
-42 -62 0
-43 -63 0
-44 -64 0
-45 -65 0
-56 -61 0
-57 -62 0
-58 -63 0
-59 -64 0
-60 -65 0
-136 -141 0
-137 -142 0
-138 -143 0
-139 -144 0
-140 -145 0
-131 -136 0
-132 -137 0
-133 -138 0
-134 -139 0
-135 -140 0
-401 -406 0
-402 -407 0
-403 -408 0
-404 -409 0
-405 -410 0
-41 -56 0
-42 -57 0
-43 -58 0
-44 -59 0
-45 -60 0
-486 -491 0
-487 -492 0
-488 -493 0
-489 -494 0
-490 -495 0
-361 -371 0
-362 -372 0
-363 -373 0
-364 -374 0
-365 -375 0
-166 -186 0
-167 -187 0
-168 -188 0
-169 -189 0
-170 -190 0
-26 -46 0
-27 -47 0
-28 -48 0
-29 -49 0
-30 -50 0
-326 -346 0
-327 -347 0
-328 -348 0
-329 -349 0
-330 -350 0
-256 -266 0
-257 -267 0
-258 -268 0
-259 -269 0
-260 -270 0
-356 -371 0
-357 -372 0
-358 -373 0
-359 -374 0
-360 -375 0
-171 -181 0
-172 -182 0
-173 -183 0
-174 -184 0
-175 -185 0
-406 -426 0
-407 -427 0
-408 -428 0
-409 -429 0
-410 -430 0
-431 -451 0
-432 -452 0
-433 -453 0
-434 -454 0
-435 -455 0
-311 -326 0
-312 -327 0
-313 -328 0
-314 -329 0
-315 -330 0
-371 -376 0
-372 -377 0
-373 -378 0
-374 -379 0
-375 -380 0
-361 -381 0
-362 -382 0
-363 -383 0
-364 -384 0
-365 -385 0
-361 -366 0
-362 -367 0
-363 -368 0
-364 -369 0
-365 -370 0
-261 -271 0
-262 -272 0
-263 -273 0
-264 -274 0
-265 -275 0
-51 -61 0
-52 -62 0
-53 -63 0
-54 -64 0
-55 -65 0
-251 -266 0
-252 -267 0
-253 -268 0
-254 -269 0
-255 -270 0
-36 -56 0
-37 -57 0
-38 -58 0
-39 -59 0
-40 -60 0
-326 -336 0
-327 -337 0
-328 -338 0
-329 -339 0
-330 -340 0
-266 -271 0
-267 -272 0
-268 -273 0
-269 -274 0
-270 -275 0
-441 -461 0
-442 -462 0
-443 -463 0
-444 -464 0
-445 -465 0
-491 -496 0
-492 -497 0
-493 -498 0
-494 -499 0
-495 -500 0
-281 -296 0
-282 -297 0
-283 -298 0
-284 -299 0
-285 -300 0
-146 -156 0
-147 -157 0
-148 -158 0
-149 -159 0
-150 -160 0
-86 -96 0
-87 -97 0
-88 -98 0
-89 -99 0
-90 -100 0
-411 -426 0
-412 -427 0
-413 -428 0
-414 -429 0
-415 -430 0
-131 -151 0
-132 -152 0
-133 -153 0
-134 -154 0
-135 -155 0
-16 -496 0
-17 -497 0
-18 -498 0
-19 -499 0
-20 -500 0
-66 -81 0
-67 -82 0
-68 -83 0
-69 -84 0
-70 -85 0
-61 -76 0
-62 -77 0
-63 -78 0
-64 -79 0
-65 -80 0
-156 -171 0
-157 -172 0
-158 -173 0
-159 -174 0
-160 -175 0
-296 -316 0
-297 -317 0
-298 -318 0
-299 -319 0
-300 -320 0
-326 -341 0
-327 -342 0
-328 -343 0
-329 -344 0
-330 -345 0
-176 -186 0
-177 -187 0
-178 -188 0
-179 -189 0
-180 -190 0
-31 -51 0
-32 -52 0
-33 -53 0
-34 -54 0
-35 -55 0
-261 -266 0
-262 -267 0
-263 -268 0
-264 -269 0
-265 -270 0
-426 -441 0
-427 -442 0
-428 -443 0
-429 -444 0
-430 -445 0
-426 -436 0
-427 -437 0
-428 -438 0
-429 -439 0
-430 -440 0
-91 -106 0
-92 -107 0
-93 -108 0
-94 -109 0
-95 -110 0
-1 -496 0
-2 -497 0
-3 -498 0
-4 -499 0
-5 -500 0
-1 -16 0
-2 -17 0
-3 -18 0
-4 -19 0
-5 -20 0
-126 -131 0
-127 -132 0
-128 -133 0
-129 -134 0
-130 -135 0
-201 -216 0
-202 -217 0
-203 -218 0
-204 -219 0
-205 -220 0
-316 -326 0
-317 -327 0
-318 -328 0
-319 -329 0
-320 -330 0
-216 -226 0
-217 -227 0
-218 -228 0
-219 -229 0
-220 -230 0
-331 -341 0
-332 -342 0
-333 -343 0
-334 -344 0
-335 -345 0
-101 -111 0
-102 -112 0
-103 -113 0
-104 -114 0
-105 -115 0
-76 -86 0
-77 -87 0
-78 -88 0
-79 -89 0
-80 -90 0
-466 -471 0
-467 -472 0
-468 -473 0
-469 -474 0
-470 -475 0
-96 -106 0
-97 -107 0
-98 -108 0
-99 -109 0
-100 -110 0
-301 -306 0
-302 -307 0
-303 -308 0
-304 -309 0
-305 -310 0
-21 -41 0
-22 -42 0
-23 -43 0
-24 -44 0
-25 -45 0
-46 -156 0
-47 -157 0
-48 -158 0
-49 -159 0
-50 -160 0
-221 -311 0
-222 -312 0
-223 -313 0
-224 -314 0
-225 -315 0
-6 -411 0
-7 -412 0
-8 -413 0
-9 -414 0
-10 -415 0
-181 -271 0
-182 -272 0
-183 -273 0
-184 -274 0
-185 -275 0
-301 -376 0
-302 -377 0
-303 -378 0
-304 -379 0
-305 -380 0
-146 -486 0
-147 -487 0
-148 -488 0
-149 -489 0
-150 -490 0
-346 -376 0
-347 -377 0
-348 -378 0
-349 -379 0
-350 -380 0
-1 -281 0
-2 -282 0
-3 -283 0
-4 -284 0
-5 -285 0
-201 -391 0
-202 -392 0
-203 -393 0
-204 -394 0
-205 -395 0
-166 -496 0
-167 -497 0
-168 -498 0
-169 -499 0
-170 -500 0
-6 -211 0
-7 -212 0
-8 -213 0
-9 -214 0
-10 -215 0
-6 -151 0
-7 -152 0
-8 -153 0
-9 -154 0
-10 -155 0
-166 -276 0
-167 -277 0
-168 -278 0
-169 -279 0
-170 -280 0
-281 -426 0
-282 -427 0
-283 -428 0
-284 -429 0
-285 -430 0
-241 -401 0
-242 -402 0
-243 -403 0
-244 -404 0
-245 -405 0
-201 -236 0
-202 -237 0
-203 -238 0
-204 -239 0
-205 -240 0
-121 -466 0
-122 -467 0
-123 -468 0
-124 -469 0
-125 -470 0
-286 -356 0
-287 -357 0
-288 -358 0
-289 -359 0
-290 -360 0
-1 -311 0
-2 -312 0
-3 -313 0
-4 -314 0
-5 -315 0
-36 -481 0
-37 -482 0
-38 -483 0
-39 -484 0
-40 -485 0
-281 -451 0
-282 -452 0
-283 -453 0
-284 -454 0
-285 -455 0
-66 -126 0
-67 -127 0
-68 -128 0
-69 -129 0
-70 -130 0
-191 -381 0
-192 -382 0
-193 -383 0
-194 -384 0
-195 -385 0
-296 -446 0
-297 -447 0
-298 -448 0
-299 -449 0
-300 -450 0
-176 -326 0
-177 -327 0
-178 -328 0
-179 -329 0
-180 -330 0
-121 -321 0
-122 -322 0
-123 -323 0
-124 -324 0
-125 -325 0
-236 -401 0
-237 -402 0
-238 -403 0
-239 -404 0
-240 -405 0
-331 -371 0
-332 -372 0
-333 -373 0
-334 -374 0
-335 -375 0
-166 -201 0
-167 -202 0
-168 -203 0
-169 -204 0
-170 -205 0
-341 -461 0
-342 -462 0
-343 -463 0
-344 -464 0
-345 -465 0
-261 -456 0
-262 -457 0
-263 -458 0
-264 -459 0
-265 -460 0
-336 -451 0
-337 -452 0
-338 -453 0
-339 -454 0
-340 -455 0
-166 -191 0
-167 -192 0
-168 -193 0
-169 -194 0
-170 -195 0
-46 -331 0
-47 -332 0
-48 -333 0
-49 -334 0
-50 -335 0
-111 -351 0
-112 -352 0
-113 -353 0
-114 -354 0
-115 -355 0
-31 -206 0
-32 -207 0
-33 -208 0
-34 -209 0
-35 -210 0
-71 -286 0
-72 -287 0
-73 -288 0
-74 -289 0
-75 -290 0
-221 -436 0
-222 -437 0
-223 -438 0
-224 -439 0
-225 -440 0
-261 -391 0
-262 -392 0
-263 -393 0
-264 -394 0
-265 -395 0
-156 -406 0
-157 -407 0
-158 -408 0
-159 -409 0
-160 -410 0
-96 -271 0
-97 -272 0
-98 -273 0
-99 -274 0
-100 -275 0
-186 -216 0
-187 -217 0
-188 -218 0
-189 -219 0
-190 -220 0
-6 -101 0
-7 -102 0
-8 -103 0
-9 -104 0
-10 -105 0
-251 -416 0
-252 -417 0
-253 -418 0
-254 -419 0
-255 -420 0
-181 -351 0
-182 -352 0
-183 -353 0
-184 -354 0
-185 -355 0
-126 -411 0
-127 -412 0
-128 -413 0
-129 -414 0
-130 -415 0
-226 -371 0
-227 -372 0
-228 -373 0
-229 -374 0
-230 -375 0
-216 -366 0
-217 -367 0
-218 -368 0
-219 -369 0
-220 -370 0
-401 -431 0
-402 -432 0
-403 -433 0
-404 -434 0
-405 -435 0
-6 -366 0
-7 -367 0
-8 -368 0
-9 -369 0
-10 -370 0
-1 -76 0
-2 -77 0
-3 -78 0
-4 -79 0
-5 -80 0
-56 -346 0
-57 -347 0
-58 -348 0
-59 -349 0
-60 -350 0
-191 -496 0
-192 -497 0
-193 -498 0
-194 -499 0
-195 -500 0
-151 -251 0
-152 -252 0
-153 -253 0
-154 -254 0
-155 -255 0
-46 -381 0
-47 -382 0
-48 -383 0
-49 -384 0
-50 -385 0
-36 -411 0
-37 -412 0
-38 -413 0
-39 -414 0
-40 -415 0
-146 -256 0
-147 -257 0
-148 -258 0
-149 -259 0
-150 -260 0
-21 -416 0
-22 -417 0
-23 -418 0
-24 -419 0
-25 -420 0
-121 -356 0
-122 -357 0
-123 -358 0
-124 -359 0
-125 -360 0
-146 -246 0
-147 -247 0
-148 -248 0
-149 -249 0
-150 -250 0
-91 -176 0
-92 -177 0
-93 -178 0
-94 -179 0
-95 -180 0
-226 -256 0
-227 -257 0
-228 -258 0
-229 -259 0
-230 -260 0
-101 -241 0
-102 -242 0
-103 -243 0
-104 -244 0
-105 -245 0
-431 -471 0
-432 -472 0
-433 -473 0
-434 -474 0
-435 -475 0
-301 -341 0
-302 -342 0
-303 -343 0
-304 -344 0
-305 -345 0
-136 -196 0
-137 -197 0
-138 -198 0
-139 -199 0
-140 -200 0
-281 -481 0
-282 -482 0
-283 -483 0
-284 -484 0
-285 -485 0
-36 -261 0
-37 -262 0
-38 -263 0
-39 -264 0
-40 -265 0
-181 -346 0
-182 -347 0
-183 -348 0
-184 -349 0
-185 -350 0
-131 -271 0
-132 -272 0
-133 -273 0
-134 -274 0
-135 -275 0
-211 -251 0
-212 -252 0
-213 -253 0
-214 -254 0
-215 -255 0
-36 -96 0
-37 -97 0
-38 -98 0
-39 -99 0
-40 -100 0
-231 -286 0
-232 -287 0
-233 -288 0
-234 -289 0
-235 -290 0
-41 -286 0
-42 -287 0
-43 -288 0
-44 -289 0
-45 -290 0
-121 -401 0
-122 -402 0
-123 -403 0
-124 -404 0
-125 -405 0
-141 -316 0
-142 -317 0
-143 -318 0
-144 -319 0
-145 -320 0
-31 -276 0
-32 -277 0
-33 -278 0
-34 -279 0
-35 -280 0
-131 -311 0
-132 -312 0
-133 -313 0
-134 -314 0
-135 -315 0
-341 -436 0
-342 -437 0
-343 -438 0
-344 -439 0
-345 -440 0
-86 -321 0
-87 -322 0
-88 -323 0
-89 -324 0
-90 -325 0
-71 -486 0
-72 -487 0
-73 -488 0
-74 -489 0
-75 -490 0
-56 -271 0
-57 -272 0
-58 -273 0
-59 -274 0
-60 -275 0
-226 -446 0
-227 -447 0
-228 -448 0
-229 -449 0
-230 -450 0
-401 -446 0
-402 -447 0
-403 -448 0
-404 -449 0
-405 -450 0
-196 -296 0
-197 -297 0
-198 -298 0
-199 -299 0
-200 -300 0
-171 -286 0
-172 -287 0
-173 -288 0
-174 -289 0
-175 -290 0
-161 -371 0
-162 -372 0
-163 -373 0
-164 -374 0
-165 -375 0
-46 -376 0
-47 -377 0
-48 -378 0
-49 -379 0
-50 -380 0
-141 -261 0
-142 -262 0
-143 -263 0
-144 -264 0
-145 -265 0
-6 -131 0
-7 -132 0
-8 -133 0
-9 -134 0
-10 -135 0
-341 -456 0
-342 -457 0
-343 -458 0
-344 -459 0
-345 -460 0
-116 -331 0
-117 -332 0
-118 -333 0
-119 -334 0
-120 -335 0
-36 -246 0
-37 -247 0
-38 -248 0
-39 -249 0
-40 -250 0
-36 -496 0
-37 -497 0
-38 -498 0
-39 -499 0
-40 -500 0
-341 -371 0
-342 -372 0
-343 -373 0
-344 -374 0
-345 -375 0
-86 -266 0
-87 -267 0
-88 -268 0
-89 -269 0
-90 -270 0
-21 -231 0
-22 -232 0
-23 -233 0
-24 -234 0
-25 -235 0
-191 -326 0
-192 -327 0
-193 -328 0
-194 -329 0
-195 -330 0
-106 -306 0
-107 -307 0
-108 -308 0
-109 -309 0
-110 -310 0
-346 -371 0
-347 -372 0
-348 -373 0
-349 -374 0
-350 -375 0
-26 -226 0
-27 -227 0
-28 -228 0
-29 -229 0
-30 -230 0
-201 -406 0
-202 -407 0
-203 -408 0
-204 -409 0
-205 -410 0
-336 -496 0
-337 -497 0
-338 -498 0
-339 -499 0
-340 -500 0
-166 -391 0
-167 -392 0
-168 -393 0
-169 -394 0
-170 -395 0
-86 -361 0
-87 -362 0
-88 -363 0
-89 -364 0
-90 -365 0
-11 -211 0
-12 -212 0
-13 -213 0
-14 -214 0
-15 -215 0
-151 -496 0
-152 -497 0
-153 -498 0
-154 -499 0
-155 -500 0
-146 -371 0
-147 -372 0
-148 -373 0
-149 -374 0
-150 -375 0
-71 -281 0
-72 -282 0
-73 -283 0
-74 -284 0
-75 -285 0
-361 -451 0
-362 -452 0
-363 -453 0
-364 -454 0
-365 -455 0
-281 -401 0
-282 -402 0
-283 -403 0
-284 -404 0
-285 -405 0
-26 -66 0
-27 -67 0
-28 -68 0
-29 -69 0
-30 -70 0
-31 -466 0
-32 -467 0
-33 -468 0
-34 -469 0
-35 -470 0
-61 -341 0
-62 -342 0
-63 -343 0
-64 -344 0
-65 -345 0
-46 -436 0
-47 -437 0
-48 -438 0
-49 -439 0
-50 -440 0
-36 -296 0
-37 -297 0
-38 -298 0
-39 -299 0
-40 -300 0
-136 -191 0
-137 -192 0
-138 -193 0
-139 -194 0
-140 -195 0
-216 -431 0
-217 -432 0
-218 -433 0
-219 -434 0
-220 -435 0
-271 -446 0
-272 -447 0
-273 -448 0
-274 -449 0
-275 -450 0
-36 -491 0
-37 -492 0
-38 -493 0
-39 -494 0
-40 -495 0
-266 -321 0
-267 -322 0
-268 -323 0
-269 -324 0
-270 -325 0
-66 -461 0
-67 -462 0
-68 -463 0
-69 -464 0
-70 -465 0
-281 -441 0
-282 -442 0
-283 -443 0
-284 -444 0
-285 -445 0
-291 -346 0
-292 -347 0
-293 -348 0
-294 -349 0
-295 -350 0
-456 -486 0
-457 -487 0
-458 -488 0
-459 -489 0
-460 -490 0
-21 -151 0
-22 -152 0
-23 -153 0
-24 -154 0
-25 -155 0
-376 -441 0
-377 -442 0
-378 -443 0
-379 -444 0
-380 -445 0
-71 -131 0
-72 -132 0
-73 -133 0
-74 -134 0
-75 -135 0
-236 -391 0
-237 -392 0
-238 -393 0
-239 -394 0
-240 -395 0
-6 -156 0
-7 -157 0
-8 -158 0
-9 -159 0
-10 -160 0
-181 -326 0
-182 -327 0
-183 -328 0
-184 -329 0
-185 -330 0
-381 -471 0
-382 -472 0
-383 -473 0
-384 -474 0
-385 -475 0
-136 -306 0
-137 -307 0
-138 -308 0
-139 -309 0
-140 -310 0
-306 -486 0
-307 -487 0
-308 -488 0
-309 -489 0
-310 -490 0
-56 -126 0
-57 -127 0
-58 -128 0
-59 -129 0
-60 -130 0
-141 -356 0
-142 -357 0
-143 -358 0
-144 -359 0
-145 -360 0
-141 -411 0
-142 -412 0
-143 -413 0
-144 -414 0
-145 -415 0
-21 -496 0
-22 -497 0
-23 -498 0
-24 -499 0
-25 -500 0
-126 -261 0
-127 -262 0
-128 -263 0
-129 -264 0
-130 -265 0
-111 -176 0
-112 -177 0
-113 -178 0
-114 -179 0
-115 -180 0
-6 -296 0
-7 -297 0
-8 -298 0
-9 -299 0
-10 -300 0
-46 -151 0
-47 -152 0
-48 -153 0
-49 -154 0
-50 -155 0
-351 -401 0
-352 -402 0
-353 -403 0
-354 -404 0
-355 -405 0
-166 -326 0
-167 -327 0
-168 -328 0
-169 -329 0
-170 -330 0
-306 -491 0
-307 -492 0
-308 -493 0
-309 -494 0
-310 -495 0
-216 -371 0
-217 -372 0
-218 -373 0
-219 -374 0
-220 -375 0
-251 -371 0
-252 -372 0
-253 -373 0
-254 -374 0
-255 -375 0
-71 -296 0
-72 -297 0
-73 -298 0
-74 -299 0
-75 -300 0
-76 -251 0
-77 -252 0
-78 -253 0
-79 -254 0
-80 -255 0
-46 -371 0
-47 -372 0
-48 -373 0
-49 -374 0
-50 -375 0
-131 -291 0
-132 -292 0
-133 -293 0
-134 -294 0
-135 -295 0
-26 -426 0
-27 -427 0
-28 -428 0
-29 -429 0
-30 -430 0
-101 -146 0
-102 -147 0
-103 -148 0
-104 -149 0
-105 -150 0
-26 -491 0
-27 -492 0
-28 -493 0
-29 -494 0
-30 -495 0
-261 -321 0
-262 -322 0
-263 -323 0
-264 -324 0
-265 -325 0
-316 -436 0
-317 -437 0
-318 -438 0
-319 -439 0
-320 -440 0
-46 -136 0
-47 -137 0
-48 -138 0
-49 -139 0
-50 -140 0
-181 -416 0
-182 -417 0
-183 -418 0
-184 -419 0
-185 -420 0
-176 -466 0
-177 -467 0
-178 -468 0
-179 -469 0
-180 -470 0
-351 -396 0
-352 -397 0
-353 -398 0
-354 -399 0
-355 -400 0
-16 -61 0
-17 -62 0
-18 -63 0
-19 -64 0
-20 -65 0
-311 -341 0
-312 -342 0
-313 -343 0
-314 -344 0
-315 -345 0
-296 -336 0
-297 -337 0
-298 -338 0
-299 -339 0
-300 -340 0
-96 -416 0
-97 -417 0
-98 -418 0
-99 -419 0
-100 -420 0
-16 -291 0
-17 -292 0
-18 -293 0
-19 -294 0
-20 -295 0
-181 -256 0
-182 -257 0
-183 -258 0
-184 -259 0
-185 -260 0
-31 -226 0
-32 -227 0
-33 -228 0
-34 -229 0
-35 -230 0
-76 -176 0
-77 -177 0
-78 -178 0
-79 -179 0
-80 -180 0
-96 -466 0
-97 -467 0
-98 -468 0
-99 -469 0
-100 -470 0
-181 -471 0
-182 -472 0
-183 -473 0
-184 -474 0
-185 -475 0
-386 -481 0
-387 -482 0
-388 -483 0
-389 -484 0
-390 -485 0
-141 -391 0
-142 -392 0
-143 -393 0
-144 -394 0
-145 -395 0
-121 -176 0
-122 -177 0
-123 -178 0
-124 -179 0
-125 -180 0
-321 -351 0
-322 -352 0
-323 -353 0
-324 -354 0
-325 -355 0
-381 -411 0
-382 -412 0
-383 -413 0
-384 -414 0
-385 -415 0
-206 -286 0
-207 -287 0
-208 -288 0
-209 -289 0
-210 -290 0
-66 -106 0
-67 -107 0
-68 -108 0
-69 -109 0
-70 -110 0
-196 -381 0
-197 -382 0
-198 -383 0
-199 -384 0
-200 -385 0
-106 -421 0
-107 -422 0
-108 -423 0
-109 -424 0
-110 -425 0
-106 -281 0
-107 -282 0
-108 -283 0
-109 -284 0
-110 -285 0
-91 -226 0
-92 -227 0
-93 -228 0
-94 -229 0
-95 -230 0
-166 -251 0
-167 -252 0
-168 -253 0
-169 -254 0
-170 -255 0
